
Gurobi 9.0.1 (linux64) logging started Thu Apr 30 05:58:01 2020

Gurobi Optimizer version 9.0.1 build v9.0.1rc0 (linux64)
Optimize a model with 2058 rows, 2120 columns and 19760 nonzeros
Model fingerprint: 0x5a135beb
Variable types: 0 continuous, 2120 integer (2106 binary)
Coefficient statistics:
  Matrix range     [1e+00, 7e+00]
  Objective range  [2e+00, 1e+02]
  Bounds range     [1e+00, 1e+00]
  RHS range        [1e+00, 1e+00]

User MIP start produced solution with objective 590 (0.01s)
Loaded user MIP start with objective 590

Presolve removed 630 rows and 736 columns
Presolve time: 0.12s
Presolved: 1428 rows, 1384 columns, 14632 nonzeros
Variable types: 0 continuous, 1384 integer (1372 binary)

Root relaxation: objective 3.647947e+02, 1076 iterations, 0.10 seconds

    Nodes    |    Current Node    |     Objective Bounds      |     Work
 Expl Unexpl |  Obj  Depth IntInf | Incumbent    BestBd   Gap | It/Node Time

     0     0  364.79473    0  440  590.00000  364.79473  38.2%     -    0s
     0     0  390.05419    0  458  590.00000  390.05419  33.9%     -    0s
     0     0  390.15923    0  455  590.00000  390.15923  33.9%     -    0s
     0     0  390.17166    0  450  590.00000  390.17166  33.9%     -    0s
     0     0  390.17208    0  451  590.00000  390.17208  33.9%     -    0s
     0     0  397.25272    0  447  590.00000  397.25272  32.7%     -    1s
     0     0  400.70995    0  454  590.00000  400.70995  32.1%     -    1s
     0     0  400.75899    0  448  590.00000  400.75899  32.1%     -    1s
     0     0  400.75899    0  448  590.00000  400.75899  32.1%     -    1s
     0     0  411.55586    0  451  590.00000  411.55586  30.2%     -    1s
     0     0  412.29304    0  470  590.00000  412.29304  30.1%     -    1s
     0     0  412.34231    0  475  590.00000  412.34231  30.1%     -    2s
     0     0  412.34648    0  471  590.00000  412.34648  30.1%     -    2s
     0     0  415.53564    0  496  590.00000  415.53564  29.6%     -    2s
     0     0  416.27882    0  513  590.00000  416.27882  29.4%     -    2s
     0     0  416.74412    0  508  590.00000  416.74412  29.4%     -    3s
     0     0  416.76216    0  508  590.00000  416.76216  29.4%     -    3s
     0     0  419.17137    0  508  590.00000  419.17137  29.0%     -    3s
     0     0  419.29710    0  511  590.00000  419.29710  28.9%     -    3s
     0     0  419.32214    0  514  590.00000  419.32214  28.9%     -    3s
     0     0  423.10995    0  483  590.00000  423.10995  28.3%     -    3s
     0     0  423.39184    0  502  590.00000  423.39184  28.2%     -    3s
     0     0  423.41584    0  503  590.00000  423.41584  28.2%     -    3s
     0     0  425.18674    0  494  590.00000  425.18674  27.9%     -    4s
     0     0  425.30144    0  497  590.00000  425.30144  27.9%     -    4s
     0     0  425.34475    0  498  590.00000  425.34475  27.9%     -    4s
     0     0  425.35615    0  501  590.00000  425.35615  27.9%     -    4s
     0     0  427.18445    0  520  590.00000  427.18445  27.6%     -    4s
     0     0  427.42346    0  506  590.00000  427.42346  27.6%     -    4s
     0     0  427.43743    0  507  590.00000  427.43743  27.6%     -    4s
     0     0  428.62469    0  493  590.00000  428.62469  27.4%     -    4s
     0     0  428.68410    0  501  590.00000  428.68410  27.3%     -    5s
     0     0  428.70112    0  496  590.00000  428.70112  27.3%     -    5s
     0     0  431.82937    0  489  590.00000  431.82937  26.8%     -    5s
     0     0  432.11151    0  487  590.00000  432.11151  26.8%     -    5s
     0     0  432.15371    0  492  590.00000  432.15371  26.8%     -    5s
     0     0  432.16364    0  499  590.00000  432.16364  26.8%     -    5s
     0     0  434.65508    0  488  590.00000  434.65508  26.3%     -    5s
     0     0  434.77347    0  495  590.00000  434.77347  26.3%     -    6s
     0     0  434.78551    0  491  590.00000  434.78551  26.3%     -    6s
     0     0  435.27401    0  503  590.00000  435.27401  26.2%     -    6s
     0     0  435.36975    0  500  590.00000  435.36975  26.2%     -    6s
     0     0  435.38358    0  499  590.00000  435.38358  26.2%     -    6s
     0     0  435.69882    0  506  590.00000  435.69882  26.2%     -    6s
     0     0  435.69882    0  506  590.00000  435.69882  26.2%     -    6s
     0     2  435.72983    0  506  590.00000  435.72983  26.1%     -    6s
    13    15  444.21196    7  456  590.00000  442.30576  25.0%  1076   10s
H   27    27                     585.0000000  455.11717  22.2%   819   11s
H   54    54                     581.0000000  455.11717  21.7%   669   14s
    72    74  526.36912   43  259  581.00000  455.11717  21.7%   582   15s
   165   130  458.99572    2  401  581.00000  458.32625  21.1%   431   20s
   254   197  533.28495   11  321  581.00000  459.25725  21.0%   412   25s
   336   237  520.94685   10  326  581.00000  459.61571  20.9%   396   30s
H  357   197                     551.0000000  459.61571  16.6%   381   31s
   454   224  530.08315   16  273  551.00000  460.02990  16.5%   358   35s
H  479   163                     522.0000000  460.06058  11.9%   356   36s
H  510   133                     512.0000000  460.60387  10.0%   354   39s
   511   133  499.95802   22  506  512.00000  460.60387  10.0%   353   40s
   525   142  484.72500   10  526  512.00000  460.60387  10.0%   344   45s
   538   153  472.40014   16  399  512.00000  460.60387  10.0%   376   50s
   592   170  460.60387   20  375  512.00000  460.60387  10.0%   391   55s
   685   183  478.42937   22  276  512.00000  460.60387  10.0%   388   60s
   773   191  508.04231   18  330  512.00000  461.69007  9.83%   390   65s
   859   179  505.05362   32  328  512.00000  464.31872  9.31%   388   70s
   953   182  498.49539   27  319  512.00000  465.54707  9.07%   381   75s
  1053   199  474.98868   29  438  512.00000  468.08670  8.58%   369   80s
  1124   217  508.33106   17  272  512.00000  471.06622  7.99%   372   85s
  1181   227  483.97723   18  350  512.00000  472.39607  7.74%   371   90s
  1268   237     cutoff   16       512.00000  473.94823  7.43%   366   95s
  1380   238  485.99094   25  352  512.00000  477.38361  6.76%   358  100s
  1460   243  509.04583   29  139  512.00000  480.65401  6.12%   356  105s
  1573   243  500.20697   36  268  512.00000  482.43848  5.77%   351  110s
  1692   238  492.55037   27  246  512.00000  484.22749  5.42%   345  115s
  1800   241  495.29265   36  386  512.00000  486.18464  5.04%   342  120s
  1899   206 infeasible   18       512.00000  490.88598  4.12%   339  125s
  2042   154  509.72946   20  338  512.00000  497.04342  2.92%   329  130s
  2258    68  509.78379   26  174  512.00000  507.49458  0.88%   312  135s

Cutting planes:
  Cover: 1
  MIR: 17
  StrongCG: 1
  Flow cover: 70
  Inf proof: 10
  Zero half: 88
  RLT: 466

Explored 2593 nodes (733217 simplex iterations) in 138.94 seconds
Thread count was 1 (of 40 available processors)

Solution count 6: 512 522 551 ... 590

Optimal solution found (tolerance 1.00e-04)
Best objective 5.120000000000e+02, best bound 5.120000000000e+02, gap 0.0000%

User-callback calls 18384, time in user-callback 0.02 sec
